Version identifier: 22.1.0.0 | 2022-03-09 | 1a383f8ce
CPXPARAM_Threads                                 1
CPXPARAM_MIP_Strategy_VariableSelect             3
CPXPARAM_TimeLimit                               588.61169347299995
1 of 1 MIP starts provided solutions.
MIP start 'm1' defined initial solution with objective 474.0000.
Tried aggregator 1 time.
MIP Presolve eliminated 17 rows and 0 columns.
MIP Presolve modified 552 coefficients.
Reduced MIP has 4505 rows, 10500 columns, and 213226 nonzeros.
Reduced MIP has 10500 binaries, 0 generals, 0 SOSs, and 0 indicators.
Presolve time = 0.20 sec. (347.59 ticks)
Probing time = 0.03 sec. (24.63 ticks)
Tried aggregator 1 time.
Detecting symmetries...
MIP Presolve modified 16 coefficients.
Reduced MIP has 4505 rows, 10500 columns, and 213394 nonzeros.
Reduced MIP has 10500 binaries, 0 generals, 0 SOSs, and 0 indicators.
Presolve time = 0.20 sec. (323.00 ticks)
Probing time = 0.03 sec. (24.64 ticks)
Clique table members: 3490.
MIP emphasis: balance optimality and feasibility.
MIP search method: dynamic search.
Parallel mode: none, using 1 thread.
Root relaxation solution time = 4.67 sec. (5558.44 ticks)

        Nodes                                         Cuts/
   Node  Left     Objective  IInf  Best Integer    Best Bound    ItCnt     Gap

*     0+    0                          474.0000   125250.0000              --- 
      0     0      500.0000  2162      474.0000      500.0000    10546    5.49%
      0     0      500.0000   433      474.0000      Cuts: 12    16024    5.49%
      0     0      500.0000   203      474.0000      Cuts: 30    18875    5.49%
*     0+    0                          500.0000      500.0000             0.00%
      0     0        cutoff            500.0000      500.0000    18875    0.00%
Elapsed time = 76.61 sec. (74470.54 ticks, tree = 0.01 MB, solutions = 2)

Clique cuts applied:  19
Zero-half cuts applied:  5

Root node processing (before b&c):
  Real time             =   76.61 sec. (74470.95 ticks)
Sequential b&c:
  Real time             =    0.00 sec. (0.00 ticks)
                          ------------
Total (root+branch&cut) =   76.61 sec. (74470.95 ticks)
Primal:	500
Dual:	500
Status:	Optimal
Time:	76.64
Sequence:
	17
	14
	6
	17
	14
	5
	8
	7
	5
	8
	16
	3
	8
	16
	3
	8
	13
	16
	12
	19
	16
	12
	1
	16
	3
	17
	14
	13
	17
	14
	5
	8
	16
	13
	17
	7
	4
	17
	4
	14
	17
	13
	5
	8
	16
	6
	8
	16
	13
	17
	7
	13
	9
	11
	6
	9
	5
	0
	10
	15
	0
	10
	3
	2
	18
	4
	2
	18
	4
	2
	18
	3
	2
	18
	4
	2
	18
	4
	5
	8
	7
	5
	8
	13
	7
	17
	3
	14
	8
	4
	3
	18
	4
	2
	18
	3
	2
	18
	3
	4
	17
	13
	7
	9
	0
	14
	19
	12
	16
	1
	12
	16
	1
	12
	16
	19
	12
	16
	19
	12
	14
	1
	12
	7
	19
	2
	11
	19
	2
	0
	10
	15
	0
	10
	2
	3
	18
	2
	3
	18
	4
	2
	18
	3
	2
	18
	3
	2
	18
	3
	2
	18
	4
	5
	8
	16
	13
	8
	5
	14
	17
	4
	16
	8
	5
	7
	17
	3
	14
	8
	4
	14
	17
	4
	16
	8
	5
	14
	8
	13
	7
	17
	4
	16
	8
	13
	16
	8
	13
	5
	8
	16
	13
	17
	7
	13
	8
	7
	13
	8
	16
	6
	8
	16
	13
	8
	5
	4
	18
	2
	4
	10
	12
	13
	1
	11
	4
	9
	11
	13
	9
	11
	13
	9
	11
	4
	9
	11
	6
	9
	0
	7
	9
	0
	14
	1
	12
	16
	13
	1
	11
	15
	1
	0
	15
	10
	0
	15
	10
	0
	15
	10
	0
	15
	10
	0
	15
	10
	0
	2
	10
	0
	15
	10
	0
	2
	10
	0
	13
	9
	11
	6
	9
	11
	13
	9
	11
	13
	9
	11
	6
	9
	14
	0
	9
	14
	0
	9
	13
	11
	9
	13
	11
	9
	13
	11
	9
	4
	11
	9
	5
	4
	17
	7
	6
	8
	16
	4
	8
	7
	6
	17
	14
	13
	17
	7
	3
	0
	10
	2
	0
	10
	15
	0
	10
	15
	0
	10
	15
	4
	10
	0
	15
	10
	0
	15
	1
	11
	15
	1
	11
	15
	1
	11
	15
	1
	11
	15
	1
	7
	12
	19
	16
	12
	1
	14
	12
	19
	7
	12
	19
	7
	12
	19
	7
	12
	19
	7
	12
	19
	16
	12
	1
	16
	15
	1
	11
	15
	1
	4
	12
	10
	4
	2
	18
	4
	2
	18
	3
	5
	8
	14
	13
	17
	3
	3
	18
	2
	4
	11
	9
	6
	11
	9
	6
	11
	9
	4
	11
	19
	2
	11
	1
	2
	14
	19
	12
	14
	19
	12
	7
	19
	12
	16
	1
	12
	16
	19
	12
	16
	1
	12
	7
	19
	12
	7
	1
	12
	7
	19
	12
	7
	1
	12
	7
	1
	12
	7
	1
	13
	11
	9
	5
	14
	8
	5
	3
	18
	4
	3
	8
	7
	6
	17
	7
	6
	17
	14
	5
	8
	5
	7
	8
	5
	14
	8
	6
	16
	8
	5
	14
	8
	5
	14
	8
	6
	7
	17
	13
	7
	17
	6
	7
	17
	6
	14
	17
	6
	7
	17
